problems/csplib-prob015/SchursLemma-models/noch/O2/lingeling/model_1_2-4-15-solution000001.eprime-solution
language ESSENCE' 1.0

letting boxes_PartitionAsSet_ExplicitR6_ExplicitVarSizeWithDummy be
        [[1, 7, 9, 11, 14, 16, 16, 16, 16, 16, 16, 16, 16, 16, 16; int(1..15)],
         [2, 4, 10, 13, 16, 16, 16, 16, 16, 16, 16, 16, 16, 16, 16; int(1..15)],
         [3, 16, 16, 16, 16, 16, 16, 16, 16, 16, 16, 16, 16, 16, 16; int(1..15)],
         [5, 6, 8, 12, 15, 16, 16, 16, 16, 16, 16, 16, 16, 16, 16; int(1..15)]; int(1..4)]
