problems/csplib-prob015/SchursLemma-models/noch/O2/lingeling/model_1_2-4-15-solution000001.solution
language Essence 1.3

letting boxes be partition({1, 7, 9, 11, 14}, {2, 4, 10, 13}, {3}, {5, 6, 8, 12, 15})
